200 48
5 135
5 197
6 45
6 108
9 147
12 173
15 144
19 105
22 81
22 102
26 76
27 57
29 160
31 187
33 46
39 86
40 51
40 180
41 180
45 179
50 69
51 73
51 85
57 66
57 182
58 138
60 112
62 91
67 190
70 111
73 85
80 95
84 133
87 90
91 193
94 197
100 126
113 165
119 127
124 149
124 196
126 163
141 195
146 155
151 168
161 165
164 193
182 184
